Route #1: 47 23 15 52 9
Route #2: 29 19 45 6 51 41 11 44 13 24 20 39 18 10 7 8 25
Route #3: 40 16 48 5 22 27 38 43
Route #4: 35 31 3 21 56 12 32 55
Route #5: 36 17 28 53 2 1 14 34 50 4 49 33 37
Route #6: 26 54 42 30 46
Route #7: 
cost 940.9788060712007
